problems/csplib-prob030/BalancedAcademicCurriculumProblem-models/compact/O0/minion/model-bacp-18-solution000001.solution
language Essence 1.3

letting curr be
        function(1 --> 2, 2 --> 1, 3 --> 2, 4 --> 2, 5 --> 1, 6 --> 1, 7 --> 8, 8 --> 8, 9 --> 8, 10 --> 7, 11 --> 1,
                 12 --> 7, 13 --> 7, 14 --> 1, 15 --> 7, 16 --> 6, 17 --> 6, 18 --> 6, 19 --> 6, 20 --> 6, 21 --> 6,
                 22 --> 5, 23 --> 5, 24 --> 5, 25 --> 2, 26 --> 5, 27 --> 5, 28 --> 4, 29 --> 2, 30 --> 1, 31 --> 3,
                 32 --> 4, 33 --> 3, 34 --> 4, 35 --> 9, 36 --> 3, 37 --> 3, 38 --> 2, 39 --> 3, 40 --> 2, 41 --> 2,
                 42 --> 2, 43 --> 10, 44 --> 2, 45 --> 10, 46 --> 1, 47 --> 1, 48 --> 1, 49 --> 1, 50 --> 9)
