problems/csplib-prob030/BalancedAcademicCurriculumProblem-models/noch/O2/minion/model-bacp-18-solution000001.eprime-solution
language ESSENCE' 1.0

letting curr_Function1D be
        [2, 1, 2, 2, 1, 1, 8, 8, 8, 7, 1, 7, 7, 1, 7, 6, 6, 6, 6, 6, 6, 5, 5, 5, 2, 5, 5, 4, 2, 1, 3, 4, 3, 4, 9, 3, 3,
         2, 3, 2, 2, 2, 10, 2, 10, 1, 1, 1, 1, 9;
             int(1..50)]
